data;


param d:= 100;
param r:=5;
param p:=0.860000;
param M:=1000;
param U:=
         1         1       -3.065248e-01
         2         1       -2.400787e-01
         3         1       -2.507276e+00
         4         1       -2.029298e+00
         5         1        1.791202e+00
         6         1        3.980879e-01
         7         1        9.545952e-01
         8         1       -2.685819e+00
         9         1       -1.100200e+00
        10         1       -1.407427e+00
        11         1        4.432265e-01
        12         1       -1.062316e+00
        13         1        5.598037e-01
        14         1       -1.670490e+00
        15         1       -9.061690e-01
        16         1        2.457094e-01
        17         1       -1.509437e-01
        18         1       -3.117559e-01
        19         1       -8.101153e-01
        20         1        3.477228e-01
        21         1       -9.816372e-02
        22         1        6.882785e-01
        23         1        1.309546e+00
        24         1        4.364071e-02
        25         1       -4.597080e-01
        26         1        7.512273e-01
        27         1       -3.981866e-01
        28         1        3.567744e-01
        29         1        1.207868e+00
        30         1        8.175399e-01
        31         1        5.918331e-01
        32         1        9.764319e-01
        33         1        2.586712e-01
        34         1       -1.301535e+00
        35         1       -1.406184e+00
        36         1        7.080057e-01
        37         1       -1.273152e+00
        38         1       -3.997755e-01
        39         1        7.637627e-01
        40         1       -1.419482e+00
        41         1        7.626964e-01
        42         1        5.698862e-01
        43         1        2.304713e-01
        44         1       -6.064590e-01
        45         1       -6.674648e-01
        46         1        1.945328e-01
        47         1        1.098118e+00
        48         1        9.957563e-01
        49         1        1.572995e+00
        50         1        1.989145e+00
        51         1        1.151248e+00
        52         1       -1.218525e+00
        53         1        3.967356e-02
        54         1       -2.545244e-01
        55         1       -1.049250e+00
        56         1        2.037898e+00
        57         1        4.374488e-02
        58         1        7.243888e-01
        59         1        3.273799e-01
        60         1       -7.914376e-01
        61         1       -4.341647e-01
        62         1       -9.123157e-01
        63         1       -1.371958e+00
        64         1       -2.270742e-01
        65         1       -1.481452e+00
        66         1       -3.247693e-01
        67         1       -1.075268e+00
        68         1        6.662705e-01
        69         1       -2.290888e-01
        70         1       -5.862816e-01
        71         1       -1.003884e+00
        72         1        4.256849e-01
        73         1       -4.519713e-01
        74         1        4.680064e-01
        75         1        3.505262e-02
        76         1       -5.524149e-01
        77         1       -6.312485e-01
        78         1       -1.983724e+00
        79         1       -9.867498e-02
        80         1       -4.533753e-01
        81         1       -5.581176e-01
        82         1       -1.504023e+00
        83         1        1.893464e+00
        84         1        2.181579e+00
        85         1       -2.578459e+00
        86         1       -1.077279e-01
        87         1        2.800999e-01
        88         1       -6.725962e-01
        89         1        2.512812e-01
        90         1       -2.635116e+00
        91         1        1.235655e+00
        92         1       -1.294286e+00
        93         1       -1.826090e-01
        94         1       -1.548278e+00
        95         1       -1.872683e-02
        96         1       -2.901835e-01
        97         1       -1.835077e+00
        98         1        1.382964e+00
        99         1       -9.801208e-01
       100         1        9.729670e-01
         1         2        4.057433e-01
         2         2       -5.231289e-01
         3         2        4.251876e-02
         4         2       -1.046925e+00
         5         2        1.177473e-01
         6         2        4.915720e-01
         7         2        1.143094e+00
         8         2       -7.262955e-01
         9         2       -7.351298e-01
        10         2       -1.652748e+00
        11         2        2.082476e+00
        12         2        1.060797e+00
        13         2        5.591409e-01
        14         2       -1.924117e-01
        15         2        1.790850e-01
        16         2       -5.776418e-01
        17         2       -6.046406e-01
        18         2        2.366158e-01
        19         2       -3.198206e-01
        20         2        4.198664e-01
        21         2        1.518515e-01
        22         2       -1.492122e-01
        23         2       -8.138466e-01
        24         2       -1.726429e-01
        25         2        1.030403e+00
        26         2       -2.922617e-01
        27         2        6.718486e-01
        28         2       -3.368519e-01
        29         2       -1.365225e+00
        30         2       -1.193908e+00
        31         2       -4.843953e-01
        32         2        5.420738e-01
        33         2       -1.157889e+00
        34         2       -1.384789e+00
        35         2       -9.168857e-01
        36         2        7.513778e-01
        37         2        4.635423e-01
        38         2       -2.358252e-01
        39         2        1.516513e+00
        40         2       -2.043864e+00
        41         2       -1.870181e-01
        42         2       -8.782570e-01
        43         2        1.430067e+00
        44         2       -2.521420e+00
        45         2        1.386883e-01
        46         2        1.978104e-01
        47         2       -3.709578e-01
        48         2       -4.886008e-01
        49         2        3.438377e-01
        50         2        2.582338e-01
        51         2        2.024203e-01
        52         2       -4.998753e-01
        53         2        8.331366e-02
        54         2        1.704054e-01
        55         2        1.141721e+00
        56         2       -7.766135e-01
        57         2        1.756850e+00
        58         2       -1.573384e+00
        59         2       -4.865869e-01
        60         2       -6.048688e-01
        61         2       -1.027050e+00
        62         2        5.637820e-01
        63         2        2.715972e-01
        64         2       -8.685181e-01
        65         2       -7.810798e-01
        66         2        2.139133e+00
        67         2       -9.565703e-01
        68         2       -1.250768e+00
        69         2       -1.606149e+00
        70         2        7.757982e-01
        71         2       -7.537999e-01
        72         2        1.462651e+00
        73         2       -1.434429e+00
        74         2       -5.413692e-01
        75         2        8.852496e-01
        76         2        1.338902e+00
        77         2        8.625812e-01
        78         2       -5.237161e-01
        79         2        1.066254e+00
        80         2       -2.432341e-01
        81         2       -1.085508e+00
        82         2        9.901866e-01
        83         2       -8.956440e-01
        84         2       -1.743506e+00
        85         2       -3.393333e-01
        86         2        6.490900e-01
        87         2        1.482341e+00
        88         2        1.013923e+00
        89         2        1.348409e-02
        90         2        4.971181e-01
        91         2       -1.706056e+00
        92         2       -5.907316e-01
        93         2       -6.983928e-01
        94         2       -6.603586e-01
        95         2        2.252427e+00
        96         2        1.015161e+00
        97         2        4.016104e-01
        98         2       -9.322544e-02
        99         2        3.148679e-01
       100         2       -1.207799e-01
         1         3        7.569348e-02
         2         3        1.223747e+00
         3         3       -3.166750e-01
         4         3       -1.716034e-01
         5         3        2.140554e+00
         6         3       -9.266674e-01
         7         3       -1.030363e+00
         8         3        1.669014e+00
         9         3       -1.874154e+00
        10         3        2.069506e+00
        11         3       -1.356584e+00
        12         3       -8.179566e-01
        13         3        7.017827e-02
        14         3        9.987599e-02
        15         3       -1.594096e+00
        16         3       -1.478224e-01
        17         3       -7.522360e-01
        18         3        4.931936e-01
        19         3        6.541910e-02
        20         3       -1.031819e+00
        21         3       -4.481671e-01
        22         3        1.454802e+00
        23         3        2.585994e-01
        24         3       -1.491097e+00
        25         3       -7.470859e-01
        26         3        6.683618e-01
        27         3       -1.725848e+00
        28         3       -5.818511e-01
        29         3        8.875980e-02
        30         3       -5.564635e-01
        31         3        6.428430e-01
        32         3        8.418370e-01
        33         3        1.963204e+00
        34         3        9.116703e-01
        35         3        2.056593e-01
        36         3        1.105948e+00
        37         3       -1.189851e+00
        38         3        1.703805e+00
        39         3        2.760301e-01
        40         3       -7.645265e-01
        41         3        1.265807e+00
        42         3       -1.377667e+00
        43         3       -1.605978e+00
        44         3       -1.038772e+00
        45         3        4.106074e-01
        46         3        1.146483e+00
        47         3        7.227288e-02
        48         3       -7.669997e-01
        49         3       -7.789397e-01
        50         3        8.956138e-01
        51         3       -3.931190e-01
        52         3       -7.080961e-01
        53         3       -1.053307e+00
        54         3        7.209943e-01
        55         3        2.760824e-01
        56         3       -2.385685e-01
        57         3       -1.676298e-01
        58         3        5.708747e-01
        59         3       -5.180842e-02
        60         3        5.279303e-01
        61         3        1.516637e+00
        62         3        5.209205e-01
        63         3        3.152743e-01
        64         3        7.304452e-01
        65         3       -2.541644e-01
        66         3        4.604412e-01
        67         3       -1.520172e+00
        68         3       -2.081050e-01
        69         3       -1.701939e+00
        70         3       -2.852762e-01
        71         3        7.740558e-01
        72         3       -1.286884e-01
        73         3        6.805894e-01
        74         3        4.339734e-01
        75         3        5.287370e-02
        76         3       -1.349120e+00
        77         3        7.017336e-01
        78         3       -3.849847e-01
        79         3       -5.478328e-01
        80         3        2.165209e-01
        81         3       -7.660024e-01
        82         3        3.150994e-01
        83         3       -4.178121e-02
        84         3       -1.832713e-01
        85         3       -2.075915e-01
        86         3       -4.547165e-01
        87         3       -5.291205e-01
        88         3       -4.925839e-01
        89         3        2.060079e+00
        90         3       -5.440757e-02
        91         3       -1.777530e+00
        92         3        9.840225e-02
        93         3        2.234103e-01
        94         3       -2.249276e+00
        95         3        3.760828e-01
        96         3        1.831960e-01
        97         3        5.080026e-01
        98         3       -7.848852e-01
        99         3        1.783747e+00
       100         3       -1.067527e+00
         1         4       -1.492058e+00
         2         4        3.322930e-01
         3         4        3.802168e-01
         4         4        6.574512e-02
         5         4       -1.045912e+00
         6         4       -1.115146e+00
         7         4        1.052209e+00
         8         4        9.702523e-02
         9         4       -3.287012e-01
        10         4       -4.161833e-02
        11         4        1.315569e+00
        12         4        1.064405e+00
        13         4        6.402276e-01
        14         4        1.364738e+00
        15         4       -8.387962e-01
        16         4       -1.714913e-01
        17         4        4.568792e-01
        18         4       -8.119064e-01
        19         4        9.961683e-01
        20         4        1.239956e+00
        21         4        3.252278e-01
        22         4        5.470094e-01
        23         4        4.750371e-02
        24         4       -3.319354e-01
        25         4        1.568155e+00
        26         4       -1.281151e-01
        27         4       -7.354601e-01
        28         4        1.240337e+00
        29         4       -6.512279e-02
        30         4       -1.186812e+00
        31         4        1.205100e+00
        32         4        6.717121e-01
        33         4       -3.014219e+00
        34         4       -1.899461e+00
        35         4        6.041204e-01
        36         4       -4.770997e-02
        37         4        1.012747e+00
        38         4       -3.792393e-01
        39         4       -1.206354e+00
        40         4       -4.817048e-01
        41         4        2.171139e+00
        42         4        6.351777e-01
        43         4       -1.706320e-01
        44         4        9.594542e-01
        45         4        1.557744e+00
        46         4        3.176131e-02
        47         4        2.755355e-01
        48         4        8.182338e-01
        49         4        1.451887e-01
        50         4       -1.918986e+00
        51         4       -2.046050e+00
        52         4       -1.464978e+00
        53         4       -2.274726e+00
        54         4        6.062791e-01
        55         4       -4.296941e-01
        56         4        1.834832e+00
        57         4        4.889930e-03
        58         4       -1.327829e+00
        59         4        3.817995e-01
        60         4        1.790660e-01
        61         4        8.168187e-01
        62         4        4.470494e-01
        63         4        4.144462e-01
        64         4        7.501768e-01
        65         4       -4.257434e-02
        66         4       -8.780023e-01
        67         4        1.056597e+00
        68         4        9.118099e-01
        69         4       -3.922778e-01
        70         4       -1.150485e+00
        71         4       -1.048749e-01
        72         4        8.877729e-02
        73         4        4.479041e-01
        74         4       -1.424242e+00
        75         4        1.165905e+00
        76         4       -1.131662e+00
        77         4       -4.593689e-01
        78         4       -5.144662e-01
        79         4        1.877667e-03
        80         4       -1.084245e+00
        81         4       -1.442465e+00
        82         4       -8.557467e-01
        83         4        6.562043e-01
        84         4        5.989565e-01
        85         4        1.096809e+00
        86         4        6.092150e-01
        87         4        5.925496e-01
        88         4        2.950197e-01
        89         4        7.211846e-02
        90         4       -3.508533e-01
        91         4       -2.178836e+00
        92         4       -9.251976e-01
        93         4        2.070152e+00
        94         4        3.812987e-01
        95         4       -1.270517e+00
        96         4       -4.912081e-01
        97         4       -4.371707e-01
        98         4       -1.729945e+00
        99         4        2.054317e+00
       100         4       -5.394980e-01
         1         5        9.776655e-02
         2         5       -4.707773e-01
         3         5        7.076986e-01
         4         5        4.775958e-01
         5         5       -1.336025e+00
         6         5       -1.611230e+00
         7         5        4.008370e-01
         8         5        3.391144e-01
         9         5       -1.230388e+00
        10         5       -3.182915e-01
        11         5       -3.453449e-01
        12         5       -1.369843e+00
        13         5        5.391733e-01
        14         5       -9.877633e-01
        15         5       -2.959756e-01
        16         5        2.691625e-01
        17         5        1.819305e+00
        18         5        1.440523e+00
        19         5       -1.830084e+00
        20         5        5.979846e-01
        21         5        6.687454e-01
        22         5       -7.266456e-01
        23         5       -4.129917e-01
        24         5       -8.844370e-02
        25         5       -3.950104e-02
        26         5        5.066663e-02
        27         5       -7.388211e-01
        28         5        8.048326e-01
        29         5       -1.294975e-01
        30         5       -2.164719e-01
        31         5       -1.403860e+00
        32         5        3.668761e-01
        33         5       -1.316486e+00
        34         5       -6.588879e-01
        35         5       -1.631268e+00
        36         5        6.595243e-01
        37         5       -5.708639e-01
        38         5        9.770244e-01
        39         5       -1.326088e-01
        40         5        1.195637e-01
        41         5       -8.405846e-01
        42         5        7.866926e-01
        43         5       -1.097196e+00
        44         5        1.086841e+00
        45         5        7.596639e-01
        46         5       -4.516312e-01
        47         5        4.228727e-01
        48         5       -1.036144e+00
        49         5       -7.917780e-01
        50         5       -4.179761e-01
        51         5       -1.401706e+00
        52         5       -1.174372e-01
        53         5        8.213269e-02
        54         5        5.422426e-01
        55         5       -4.249532e-01
        56         5        1.132545e+00
        57         5       -3.060962e-02
        58         5        6.518706e-01
        59         5       -6.564144e-01
        60         5       -1.347914e+00
        61         5        2.732936e-01
        62         5        1.925851e+00
        63         5        1.874020e-01
        64         5        1.028756e+00
        65         5        2.620822e-01
        66         5       -8.360189e-01
        67         5        1.014359e+00
        68         5        2.452262e-01
        69         5        8.155623e-02
        70         5       -2.910776e-01
        71         5        1.521688e-01
        72         5       -4.062909e-01
        73         5       -5.564672e-01
        74         5       -1.484651e+00
        75         5       -1.985713e-01
        76         5       -2.560089e-02
        77         5        6.616300e-02
        78         5        1.078665e+00
        79         5       -8.999325e-01
        80         5       -6.339068e-01
        81         5       -1.532005e+00
        82         5        1.486720e-01
        83         5       -1.561075e+00
        84         5       -1.227385e+00
        85         5        9.285157e-02
        86         5        4.249788e-01
        87         5       -8.014615e-02
        88         5       -2.214250e+00
        89         5       -1.589965e+00
        90         5       -1.190133e+00
        91         5       -1.109910e+00
        92         5        3.077234e-01
        93         5       -1.288075e-02
        94         5        4.989189e-01
        95         5       -5.145657e-01
        96         5        1.214911e-02
        97         5        4.611368e-01
        98         5       -9.034837e-01
        99         5       -4.416374e-01
       100         5        2.016996e-01
;

param theta:=
    1       -1.065394e-01
    2        9.778103e-01
    3       -4.883213e-01
    4       -2.378584e-01
    5        2.892461e-01
;
param X_true:=
    1        7.756113e-01
    2       -1.298734e+00
    3        5.775993e-01
    4       -6.011911e-01
    5       -1.258638e+00
    6        6.899684e-01
    7        1.384839e+00
    8       -1.164040e+00
    9        3.588572e-02
   10       -2.558877e+00
   11        2.238685e+00
   12        9.004631e-01
   13        4.564933e-01
   14       -6.692618e-01
   15        1.163990e+00
   16       -4.001722e-01
   17        2.097448e-01
   18        6.335272e-01
   19       -1.024652e+00
   20        7.553934e-01
   21        4.938636e-01
   22       -1.269931e+00
   23       -1.192341e+00
   24        6.080447e-01
   25        1.036909e+00
   26       -6.470587e-01
   27        1.503366e+00
   28       -1.454876e-01
   29       -1.528926e+00
   30       -7.631036e-01
   31       -1.543318e+00
   32       -3.872490e-02
   33       -1.782260e+00
   34       -1.399362e+00
   35       -1.462687e+00
   36        3.213295e-01
   37        7.639164e-01
   38       -6.471989e-01
   39        1.515285e+00
   40       -1.324785e+00
   41       -1.641806e+00
   42       -1.702747e-01
   43        1.881240e+00
   44       -1.807454e+00
   45       -1.445790e-01
   46       -5.253437e-01
   47       -4.582357e-01
   48       -7.036282e-01
   49        2.854419e-01
   50       -6.121676e-02
   51        3.484760e-01
   52        3.013052e-01
   53        1.156410e+00
   54       -1.457029e-01
   55        1.072647e+00
   56       -9.688452e-01
   57        1.785046e+00
   58       -1.390031e+00
   59       -7.660489e-01
   60       -1.197399e+00
   61       -1.813848e+00
   62        8.448033e-01
   63        2.134088e-01
   64       -1.062618e+00
   65       -3.958681e-01
   66        1.868449e+00
   67       -3.637510e-02
   68       -1.338326e+00
   69       -5.981130e-01
   70        1.149812e+00
   71       -9.391485e-01
   72        1.309050e+00
   73       -1.954287e+00
   74       -8.817974e-01
   75        5.012960e-01
   76        2.288621e+00
   77        6.964244e-01
   78        3.216158e-01
   79        1.059877e+00
   80       -2.207244e-01
   81       -7.279283e-01
   82        1.221132e+00
   83       -1.664714e+00
   84       -2.345230e+00
   85       -1.897531e-01
   86        8.462284e-01
   87        1.513863e+00
   88        5.929853e-01
   89       -1.496612e+00
   90        5.326112e-01
   91       -7.346227e-01
   92       -1.787091e-01
   93       -1.268665e+00
   94        6.712317e-01
   95        2.174159e+00
   96        1.054445e+00
   97        5.775051e-01
   98        2.949321e-01
   99       -1.075118e+00
  100        4.862017e-01
;
param X:=
    1        5.027759e-01
    2       -1.298734e+00
    3        6.140709e-02
    4       -2.753046e-02
    5        7.920729e-01
    6        8.332379e-02
    7       -9.376725e-01
    8       -2.103310e+00
    9        9.751921e-01
   10        4.079686e-01
   11        5.683892e-02
   12        5.807313e-01
   13       -7.921565e-02
   14       -2.133108e+00
   15        6.947319e-01
   16       -1.606290e+00
   17        4.090102e-02
   18        2.103481e+00
   19        4.683641e-01
   20       -9.509776e-01
   21       -2.877748e-01
   22        5.978193e-01
   23       -2.843181e-02
   24        8.066157e-03
   25        1.278141e+00
   26       -2.495391e-01
   27       -8.516481e-01
   28        1.322590e+00
   29        1.808491e+00
   30       -7.631036e-01
   31        2.722597e-01
   32       -6.509221e-02
   33       -1.782260e+00
   34        1.684758e+00
   35        5.429853e-01
   36        2.057312e-01
   37       -2.381006e+00
   38       -1.180669e+00
   39        3.139859e-01
   40        2.782877e-01
   41       -3.725547e-01
   42       -1.702747e-01
   43       -5.108709e-02
   44       -1.807454e+00
   45       -1.445790e-01
   46       -4.036721e-01
   47       -2.005610e-02
   48        6.091049e-01
   49        2.854419e-01
   50       -1.375681e+00
   51       -1.676219e+00
   52       -4.065019e-01
   53        1.156410e+00
   54       -2.464720e-01
   55        2.203460e+00
   56       -9.688452e-01
   57       -1.463486e+00
   58       -8.133357e-02
   59        3.773257e-01
   60       -7.512527e-01
   61       -1.260573e+00
   62       -5.482102e-01
   63        6.293967e-01
   64        1.038838e+00
   65        2.299096e+00
   66        1.515276e+00
   67       -1.443052e+00
   68       -9.168202e-01
   69       -5.981130e-01
   70       -2.695340e-01
   71        3.916985e-01
   72        2.134761e+00
   73       -1.513547e+00
   74        3.413692e-01
   75       -9.639482e-01
   76        4.321478e-01
   77        6.964244e-01
   78        4.568814e-01
   79        1.059877e+00
   80       -3.150883e-01
   81       -8.436031e-01
   82        3.796082e-02
   83        1.245866e+00
   84       -4.931813e-01
   85       -5.703795e-01
   86       -3.916810e-01
   87        6.313907e-01
   88        5.929853e-01
   89        1.247805e+00
   90        1.277802e+00
   91       -7.346227e-01
   92        8.724535e-02
   93       -8.645631e-01
   94        1.589861e-01
   95       -2.949160e-01
   96        3.008826e-01
   97       -1.171099e-01
   98       -2.088893e-01
   99       -1.277703e+00
  100        6.507058e-01
;
param outliervec:=
    1    1
    2    0
    3    1
    4    1
    5    1
    6    1
    7    1
    8    1
    9    1
   10    1
   11    1
   12    1
   13    1
   14    1
   15    1
   16    1
   17    1
   18    1
   19    1
   20    1
   21    1
   22    1
   23    1
   24    1
   25    1
   26    1
   27    1
   28    1
   29    1
   30    0
   31    1
   32    1
   33    0
   34    1
   35    1
   36    1
   37    1
   38    1
   39    1
   40    1
   41    1
   42    0
   43    1
   44    0
   45    0
   46    1
   47    1
   48    1
   49    0
   50    1
   51    1
   52    1
   53    0
   54    1
   55    1
   56    0
   57    1
   58    1
   59    1
   60    1
   61    1
   62    1
   63    1
   64    1
   65    1
   66    1
   67    1
   68    1
   69    0
   70    1
   71    1
   72    1
   73    1
   74    1
   75    1
   76    1
   77    0
   78    1
   79    0
   80    1
   81    1
   82    1
   83    1
   84    1
   85    1
   86    1
   87    1
   88    0
   89    1
   90    1
   91    0
   92    1
   93    1
   94    1
   95    1
   96    1
   97    1
   98    1
   99    1
  100    1
;